num_servers = 10;
sid = [0, 1, 2, 3, 4, 5, 6, 7, 8, 9];
scpu = [5, 2, 5, 5, 5, 2, 2, 5, 5, 5];
sram = [12, 4, 8, 9, 9, 4, 4, 9, 6, 6];

num_vms = 33;
vjob = [0, 0, 1, 2, 3, 3, 3, 4, 4, 4, 4, 4, 4, 4, 5, 6, 7, 8, 8, 8, 8, 8, 8, 8, 9, 10, 11, 12, 12, 12, 13, 14, 15];
vindex = [0, 1, 0, 0, 0, 1, 2, 0, 1, 2, 3, 4, 5, 6, 0, 0, 0, 0, 1, 2, 3, 4, 5, 6, 0, 0, 0, 0, 1, 2, 0, 0, 0];
vcpu = [2, 1, 1, 1, 2, 1, 1, 1, 1, 1, 2, 1, 1, 1, 1, 1, 1, 1, 1, 1, 1, 1, 1, 1, 1, 1, 1, 1, 1, 1, 1, 1, 1];
vram = [1, 4, 3, 2, 2, 1, 1, 2, 1, 2, 1, 1, 3, 1, 1, 1, 1, 1, 2, 1, 1, 1, 1, 1, 5, 1, 1, 1, 1, 1, 1, 3, 1];
vac = [true, true, true, true, true, true, true, true, true, true, true, true, true, true, true, true, true, true, true, true, true, true, true, true, true, true, true, true, true, true, true, true, true];
